instancias/entrada013.lp
Maximize
 8x1 + 620x2 + 768x3 + 233x4 + 384x5 + 139x6 + 634x7 + 973x8 + 810x9 + 828x10 + 820x11 + 726x12 + 757x13 + 932x14 + 0x15 + 75x16 + 93x17 + 576x18 + 256x19 + 131x20 + 214x21 + 881x22 + 347x23 + 919x24 + 845x25 + 838x26 + 880x27 + 663x28 + 829x29 + 73x30 + 788x31 + 34x32 + 60x33 + 171x34 + 5x35 + 421x36 + 27x37 + 84x38 + 764x39 + 825x40 + 740x41 + 710x42 + 982x43 + 8x44 + 116x45 + 333x46 + 896x47 + 510x48 + 340x49 + 177x50 + 14x51 + 981x52 + 463x53 + 733x54 + 570x55 + 349x56 + 339x57 + 540x58 + 168x59 + 421x60 + 297x61 + 302x62 + 899x63 + 256x64 + 993x65 + 997x66 + 113x67 + 744x68 + 85x69 + 303x70 + 986x71 + 894x72 + 97x73 + 666x74 + 155x75 + 567x76 + 720x77 + 99x78 + 962x79 + 222x80 + 666x81 + 278x82 + 920x83 + 65x84 + 28x85 + 953x86 + 93x87 + 991x88 + 848x89 + 837x90 + 405x91 + 186x92 + 814x93 + 370x94 + 36x95 + 243x96 + 734x97 + 598x98 + 927x99 + 831x100 + 254x101 + 365x102 + 803x103 + 938x104 + 345x105 + 790x106 + 762x107 + 161x108 + 582x109 + 379x110 + 114x111 + 611x112 + 279x113 + 904x114 + 784x115 + 181x116 + 587x117 + 781x118 + 639x119 + 735x120 + 649x121 + 108x122 + 542x123 + 105x124 + 267x125 + 587x126 + 916x127 + 367x128 + 163x129 + 190x130 + 372x131 + 722x132 + 131x133 + 353x134 + 73x135 + 206x136 + 197x137 + 849x138 + 284x139 + 699x140 + 241x141 + 490x142 + 564x143 + 427x144 + 330x145 + 303x146 + 854x147 + 167x148 + 984x149 + 878x150
Subject To
 623x1 + 999x2 + 360x3 + 191x4 + 491x5 + 417x6 + 826x7 + 827x8 + 633x9 + 365x10 + 694x11 + 936x12 + 579x13 + 998x14 + 481x15 + 152x16 + 815x17 + 103x18 + 868x19 + 999x20 + 901x21 + 66x22 + 782x23 + 713x24 + 202x25 + 45x26 + 390x27 + 404x28 + 774x29 + 714x30 + 616x31 + 753x32 + 912x33 + 644x34 + 173x35 + 810x36 + 188x37 + 788x38 + 393x39 + 429x40 + 126x41 + 58x42 + 496x43 + 755x44 + 556x45 + 407x46 + 123x47 + 889x48 + 919x49 + 141x50 + 81x51 + 887x52 + 308x53 + 460x54 + 630x55 + 772x56 + 952x57 + 277x58 + 434x59 + 674x60 + 750x61 + 782x62 + 472x63 + 990x64 + 121x65 + 182x66 + 655x67 + 450x68 + 85x69 + 302x70 + 857x71 + 178x72 + 696x73 + 834x74 + 901x75 + 147x76 + 982x77 + 576x78 + 134x79 + 922x80 + 501x81 + 509x82 + 403x83 + 736x84 + 759x85 + 592x86 + 393x87 + 931x88 + 265x89 + 404x90 + 610x91 + 341x92 + 652x93 + 439x94 + 567x95 + 940x96 + 245x97 + 573x98 + 431x99 + 243x100 + 426x101 + 737x102 + 767x103 + 580x104 + 735x105 + 459x106 + 720x107 + 181x108 + 462x109 + 380x110 + 609x111 + 427x112 + 640x113 + 263x114 + 536x115 + 345x116 + 52x117 + 368x118 + 127x119 + 44x120 + 155x121 + 921x122 + 797x123 + 872x124 + 504x125 + 86x126 + 407x127 + 791x128 + 583x129 + 833x130 + 217x131 + 443x132 + 719x133 + 423x134 + 996x135 + 770x136 + 41x137 + 540x138 + 513x139 + 229x140 + 631x141 + 457x142 + 624x143 + 842x144 + 587x145 + 935x146 + 629x147 + 17x148 + 398x149 + 392x150 <= 1000
Bounds
 0 <= x1 <= 1
 0 <= x2 <= 1
 0 <= x3 <= 1
 0 <= x4 <= 1
 0 <= x5 <= 1
 0 <= x6 <= 1
 0 <= x7 <= 1
 0 <= x8 <= 1
 0 <= x9 <= 1
 0 <= x10 <= 1
 0 <= x11 <= 1
 0 <= x12 <= 1
 0 <= x13 <= 1
 0 <= x14 <= 1
 0 <= x15 <= 1
 0 <= x16 <= 1
 0 <= x17 <= 1
 0 <= x18 <= 1
 0 <= x19 <= 1
 0 <= x20 <= 1
 0 <= x21 <= 1
 0 <= x22 <= 1
 0 <= x23 <= 1
 0 <= x24 <= 1
 0 <= x25 <= 1
 0 <= x26 <= 1
 0 <= x27 <= 1
 0 <= x28 <= 1
 0 <= x29 <= 1
 0 <= x30 <= 1
 0 <= x31 <= 1
 0 <= x32 <= 1
 0 <= x33 <= 1
 0 <= x34 <= 1
 0 <= x35 <= 1
 0 <= x36 <= 1
 0 <= x37 <= 1
 0 <= x38 <= 1
 0 <= x39 <= 1
 0 <= x40 <= 1
 0 <= x41 <= 1
 0 <= x42 <= 1
 0 <= x43 <= 1
 0 <= x44 <= 1
 0 <= x45 <= 1
 0 <= x46 <= 1
 0 <= x47 <= 1
 0 <= x48 <= 1
 0 <= x49 <= 1
 0 <= x50 <= 1
 0 <= x51 <= 1
 0 <= x52 <= 1
 0 <= x53 <= 1
 0 <= x54 <= 1
 0 <= x55 <= 1
 0 <= x56 <= 1
 0 <= x57 <= 1
 0 <= x58 <= 1
 0 <= x59 <= 1
 0 <= x60 <= 1
 0 <= x61 <= 1
 0 <= x62 <= 1
 0 <= x63 <= 1
 0 <= x64 <= 1
 0 <= x65 <= 1
 0 <= x66 <= 1
 0 <= x67 <= 1
 0 <= x68 <= 1
 0 <= x69 <= 1
 0 <= x70 <= 1
 0 <= x71 <= 1
 0 <= x72 <= 1
 0 <= x73 <= 1
 0 <= x74 <= 1
 0 <= x75 <= 1
 0 <= x76 <= 1
 0 <= x77 <= 1
 0 <= x78 <= 1
 0 <= x79 <= 1
 0 <= x80 <= 1
 0 <= x81 <= 1
 0 <= x82 <= 1
 0 <= x83 <= 1
 0 <= x84 <= 1
 0 <= x85 <= 1
 0 <= x86 <= 1
 0 <= x87 <= 1
 0 <= x88 <= 1
 0 <= x89 <= 1
 0 <= x90 <= 1
 0 <= x91 <= 1
 0 <= x92 <= 1
 0 <= x93 <= 1
 0 <= x94 <= 1
 0 <= x95 <= 1
 0 <= x96 <= 1
 0 <= x97 <= 1
 0 <= x98 <= 1
 0 <= x99 <= 1
 0 <= x100 <= 1
 0 <= x101 <= 1
 0 <= x102 <= 1
 0 <= x103 <= 1
 0 <= x104 <= 1
 0 <= x105 <= 1
 0 <= x106 <= 1
 0 <= x107 <= 1
 0 <= x108 <= 1
 0 <= x109 <= 1
 0 <= x110 <= 1
 0 <= x111 <= 1
 0 <= x112 <= 1
 0 <= x113 <= 1
 0 <= x114 <= 1
 0 <= x115 <= 1
 0 <= x116 <= 1
 0 <= x117 <= 1
 0 <= x118 <= 1
 0 <= x119 <= 1
 0 <= x120 <= 1
 0 <= x121 <= 1
 0 <= x122 <= 1
 0 <= x123 <= 1
 0 <= x124 <= 1
 0 <= x125 <= 1
 0 <= x126 <= 1
 0 <= x127 <= 1
 0 <= x128 <= 1
 0 <= x129 <= 1
 0 <= x130 <= 1
 0 <= x131 <= 1
 0 <= x132 <= 1
 0 <= x133 <= 1
 0 <= x134 <= 1
 0 <= x135 <= 1
 0 <= x136 <= 1
 0 <= x137 <= 1
 0 <= x138 <= 1
 0 <= x139 <= 1
 0 <= x140 <= 1
 0 <= x141 <= 1
 0 <= x142 <= 1
 0 <= x143 <= 1
 0 <= x144 <= 1
 0 <= x145 <= 1
 0 <= x146 <= 1
 0 <= x147 <= 1
 0 <= x148 <= 1
 0 <= x149 <= 1
 0 <= x150 <= 1
General
 x1 x2 x3 x4 x5 x6 x7 x8 x9 x10 x11 x12 x13 x14 x15 x16 x17 x18 x19 x20 x21 x22 x23 x24 x25 x26 x27 x28 x29 x30 x31 x32 x33 x34 x35 x36 x37 x38 x39 x40 x41 x42 x43 x44 x45 x46 x47 x48 x49 x50 x51 x52 x53 x54 x55 x56 x57 x58 x59 x60 x61 x62 x63 x64 x65 x66 x67 x68 x69 x70 x71 x72 x73 x74 x75 x76 x77 x78 x79 x80 x81 x82 x83 x84 x85 x86 x87 x88 x89 x90 x91 x92 x93 x94 x95 x96 x97 x98 x99 x100 x101 x102 x103 x104 x105 x106 x107 x108 x109 x110 x111 x112 x113 x114 x115 x116 x117 x118 x119 x120 x121 x122 x123 x124 x125 x126 x127 x128 x129 x130 x131 x132 x133 x134 x135 x136 x137 x138 x139 x140 x141 x142 x143 x144 x145 x146 x147 x148 x149 x150
End