instancias/entrada013.txt
150
1000
8 620 768 233 384 139 634 973 810 828 820 726 757 932 0 75 93 576 256 131 214 881 347 919 845 838 880 663 829 73 788 34 60 171 5 421 27 84 764 825 740 710 982 8 116 333 896 510 340 177 14 981 463 733 570 349 339 540 168 421 297 302 899 256 993 997 113 744 85 303 986 894 97 666 155 567 720 99 962 222 666 278 920 65 28 953 93 991 848 837 405 186 814 370 36 243 734 598 927 831 254 365 803 938 345 790 762 161 582 379 114 611 279 904 784 181 587 781 639 735 649 108 542 105 267 587 916 367 163 190 372 722 131 353 73 206 197 849 284 699 241 490 564 427 330 303 854 167 984 878
623 999 360 191 491 417 826 827 633 365 694 936 579 998 481 152 815 103 868 999 901 66 782 713 202 45 390 404 774 714 616 753 912 644 173 810 188 788 393 429 126 58 496 755 556 407 123 889 919 141 81 887 308 460 630 772 952 277 434 674 750 782 472 990 121 182 655 450 85 302 857 178 696 834 901 147 982 576 134 922 501 509 403 736 759 592 393 931 265 404 610 341 652 439 567 940 245 573 431 243 426 737 767 580 735 459 720 181 462 380 609 427 640 263 536 345 52 368 127 44 155 921 797 872 504 86 407 791 583 833 217 443 719 423 996 770 41 540 513 229 631 457 624 842 587 935 629 17 398 392